(declare-const delta_param2@width Int)
(declare-const delta_param2 Int)
(declare-const delta_param2@pos Int)
(declare-const delta_param0@width Int)
(declare-const delta_param1 Int)
(declare-const delta_param0 Int)
(declare-const delta_param1@pos Int)
(declare-const delta_param0@pos Int)
(declare-const delta_param1@width Int)
(declare-const delta_j Int)
(assert (exists
         ((uninterp?1 Int) (|param2@width'?2| Int) (|param1@width'?3| Int)
            (|param2@pos'?4| Int) (|param1@pos'?5| Int) (|param2'?6| Int)
            (|param1'?7| Int) (|j'?8| Int) (phi_param1?9 Int)
            (phi_param1@pos?10 Int) (phi_param1@width?11 Int)
            (type_err?12 Int) (type_err?13 Int) (tr?14 Int) (type_err?15 Int)
            (type_err?16 Int) (type_err?17 Int) (type_err?18 Int) (tr?19 Int)
            (tr?20 Int) (|param0@width'?21| Int) (|param0@pos'?22| Int)
            (|param0'?23| Int) (stderr?24 Int) (stderr@pos?25 Int)
            (stderr@width?26 Int) (j?27 Int) (m?28 Int) (i?29 Int)
            (param2@width?30 Int) (param2@pos?31 Int) (param2?32 Int)
            (param1?33 Int) (param1@pos?34 Int) (param1@width?35 Int)
            (param0?36 Int) (param0@pos?37 Int) (param0@width?38 Int))
         (and (or (and (<= (- j?27) 0) (< (- m?28) 0) (<= (- i?29) 0)
                         (< (+ (- m?28) j?27) 0)
                         (or (< (mod (+ uninterp?1 j?27) 20) 0)
                               (< 0 (mod (+ uninterp?1 j?27) 20)))
                         (= (+ (- phi_param1?9) tr?20) 0)
                         (= (+ (- phi_param1@pos?10) type_err?18) 0)
                         (= (+ (- phi_param1@width?11) type_err?16) 0))
                    (and (<= (- j?27) 0) (< (- m?28) 0) (<= (- i?29) 0)
                           (< (+ (- m?28) j?27) 0)
                           (= (mod (+ uninterp?1 j?27) 20) 0)
                           (= (+ tr?14 (- phi_param1?9)) 0)
                           (= (+ type_err?13 (- phi_param1@pos?10)) 0)
                           (= (+ type_err?12 (- phi_param1@width?11)) 0)))
                (= (+ (- type_err?15) |param2@width'?2|) 0)
                (= (+ |param1@width'?3| (- phi_param1@width?11)) 0)
                (= (+ (- stderr@width?26) |param0@width'?21|) 0)
                (= (+ (- type_err?17) |param2@pos'?4|) 0)
                (= (+ |param1@pos'?5| (- phi_param1@pos?10)) 0)
                (= (+ (- stderr@pos?25) |param0@pos'?22|) 0)
                (= (+ (- tr?19) |param2'?6|) 0)
                (= (+ |param1'?7| (- phi_param1?9)) 0)
                (= (+ (- stderr?24) |param0'?23|) 0)
                (= (+ |j'?8| (- j?27) -1) 0) (<= 0 uninterp?1)
                (<= i?29 uninterp?1) (= delta_j (+ |j'?8| (- j?27)))
                (= delta_param0 (+ |param0'?23| (- param0?36)))
                (= delta_param1 (+ |param1'?7| (- param1?33)))
                (= delta_param2 (+ |param2'?6| (- param2?32)))
                (= delta_param0@pos (+ |param0@pos'?22| (- param0@pos?37)))
                (= delta_param1@pos (+ |param1@pos'?5| (- param1@pos?34)))
                (= delta_param2@pos (+ |param2@pos'?4| (- param2@pos?31)))
                (= delta_param0@width (+ |param0@width'?21|
                                           (- param0@width?38)))
                (= delta_param1@width (+ |param1@width'?3|
                                           (- param1@width?35)))
                (= delta_param2@width (+ |param2@width'?2|
                                           (- param2@width?30))))))
(check-sat)
